webassembly/ejemplos_dzn/fails/duplicate_arg.dzn
TERM = { '.', 's(0)', 'local_0'};
null = '.';
s = 3;
n = 7;
ndeps = 0;
max_registers_sz = 3;
NR = 0;
registers = [| |];
dependencies = [| |];
GET_ENUM = { GET1, GET2, GET3};
SET_ENUM = { SET1, SET2, SET3};
TEE_ENUM = { TEE1, TEE2, TEE3};
N = 2;
OP = { 'i32.add_0', 'local.get_0' };
in_ops = [2, 0 ];
out_ops = [1, 1 ];
in1 = ['local_0', '.' ];
in2 = ['local_0', '.' ];
in3 = ['.', '.' ];
out1 = ['s(0)', 'local_0' ];
out2 = ['.', '.' ];
out3 = ['.', '.' ];
comm = [true, false ];
gas = [1, 1 ];
sz = [1, 1 ];
stor = [false, false ];
lb = [ 1, 1 ];
ub = [ 3, 3 ];
startstack = [ null, null, null, null, null, null, null ];
endstack = [ 's(0)', null, null, null, null, null, null ];
