webassembly/ejemplos_results/duplicate_arg.txt
value = 2;
fgas = [1, 1, 0];
fsize = [1, 1, 1];
states = 
[|     '.', '.', '.', '.', '.', '.', '.'
 | local_0, '.', '.', '.', '.', '.', '.'
 |  's(0)', '.', '.', '.', '.', '.', '.'
 |  's(0)', '.', '.', '.', '.', '.', '.'
 |];
register_states = 
[| '.', '.', '.'
 | '.', '.', '.'
 | '.', '.', '.'
 | '.', '.', '.'
 |];
program = [O('local.get_0'), O('i32.add_0'), NOP];
% time elapsed: 0.05 s
----------
==========
% time elapsed: 0.05 s
% [value > 1]
